n = 15;
colSum=[3,5,4,4,4,6,6,3,1,5,7,8,7,2,7];
rowSum=[6,6,6,6,4,4,5,7,7,8,3,2,5,2,1];
groups=[|1,1,1,1,1,1,1,2,3,3,3,3,4,4,4|1,1,1,5,5,2,2,2,3,3,3,6,4,6,7|1,1,1,1,5,5,2,2,2,3,3,6,6,6,7|8,5,5,1,5,5,3,3,3,3,7,7,7,6,7|8,8,5,5,5,9,9,9,10,3,7,7,7,7,7|8,8,9,9,5,9,9,9,10,3,10,10,7,7,7|8,9,9,9,9,9,11,9,10,10,10,10,10,12,7|8,8,9,8,9,11,11,9,9,9,10,10,12,12,12|8,8,8,8,13,11,11,11,11,9,9,12,12,12,12|14,14,14,14,13,13,13,13,11,9,9,12,15,15,15|14,14,14,14,13,13,13,11,11,13,16,16,16,16,15|17,17,14,13,13,13,13,11,11,13,13,16,16,16,15|17,17,17,17,17,17,13,13,13,13,13,16,16,15,15|17,17,17,17,18,17,17,17,13,13,13,13,16,16,15|17,17,18,18,18,18,17,17,17,13,13,16,16,16,16|];
rowN = 18;
colN = 18;
pair=[|0,1,0,0,1,0,0,1,0,0,0,0,0,0,0,0,0,0|0,0,1,0,1,0,0,0,0,0,0,0,0,0,0,0,0,0|0,1,0,1,0,1,1,0,1,1,0,0,0,0,0,0,0,0|0,0,0,0,0,1,1,0,0,0,0,0,0,0,0,0,0,0|1,1,1,0,0,0,0,1,1,0,0,0,0,0,0,0,0,0|0,0,0,1,0,0,1,0,0,0,0,0,0,0,0,0,0,0|0,0,0,0,0,1,0,0,0,1,0,1,0,0,0,0,0,0|0,0,0,0,1,0,0,0,1,0,0,0,1,1,0,0,0,0|0,0,0,0,1,0,0,1,0,1,1,1,1,0,0,1,0,0|0,0,1,0,0,0,1,0,1,0,0,1,0,0,0,0,0,0|0,0,0,0,0,0,0,0,1,0,0,0,1,0,0,0,0,0|0,0,0,0,0,0,1,0,0,0,0,0,0,0,1,1,0,0|0,0,0,0,0,0,0,0,0,0,1,0,0,0,0,1,1,0|0,0,0,0,0,0,0,0,0,0,0,0,1,0,0,0,1,0|0,0,0,0,0,0,0,0,0,0,0,0,0,0,0,1,0,0|0,0,0,0,0,0,0,0,0,0,0,0,1,0,1,0,0,0|0,0,0,0,0,0,0,0,0,0,0,0,1,1,0,0,0,1|0,0,0,0,0,0,0,0,0,0,0,0,0,0,0,0,1,0|];
